(set-info :smt-lib-version 2.6)
(set-option :produce-assignments true)
(set-logic BPA)
(set-info :source | Kaya Guvendi and Ethan Bogle |)
(set-info :category "crafted")
(set-info :status sat)
(declare-const p Pointer)
(declare-const a Int)
(declare-const b Int)
(assert (= b (Block p)))
(assert (not (= a (+ b (Offset p)))))
(assert (<= 0 a 512))
(assert (=p (Create b a) p))
(check-sat)
(get-model)
(exit)